10	5
0	4	4	1	2	3
1	1	10
2	1	11
3	1	8
4	1	6
5	1	9
6	1	7
7	1	11
8	1	11
9	1	11
10	1	11
11	0
0	0	0	0	0	0	0
1	10	3	2	3	2	3
2	10	3	3	2	5	1
3	6	2	4	2	5	1
4	2	5	4	4	3	1
5	10	5	3	1	2	5
6	8	3	5	5	1	3
7	8	5	5	3	5	5
8	4	5	1	5	1	2
9	5	1	2	3	2	1
10	4	4	1	3	5	3
11	0	0	0	0	0	0
5	5	5	5	5
